2
1000 6
45
150 1 1
151 1 1
153 1 2
154 1 5
155 1 2
156 1 4
157 1 5
158 1 2
159 1 2
160 1 1
161 1 2
162 1 1
164 1 4
165 1 3
166 1 5
167 1 2
168 1 5
169 1 3
170 1 7
171 1 2
172 1 2
173 1 3
174 1 3
176 1 4
179 1 1
180 1 3
181 1 2
182 1 1
183 1 1
184 1 3
185 1 1
186 1 3
187 1 1
188 1 1
189 1 3
190 1 5
191 1 2
192 1 4
193 1 5
194 1 1
196 1 3
197 1 3
198 1 1
199 1 4
200 1 1
